; aioredis :: corpus-study/repo_src/aioredis/aioredis/connection.py :: LOCK 'ConnectionPool._lock' :: structured encoding (verdict: unsat)
; Generated by snf-pipeline (encoder.py) -- run with any
; SMT-LIB2-compliant solver, e.g. `z3 aioredis__corpus-study_repo_src_aioredis_aioredis_connection.py__ConnectionPool._lock__structured.smt2`
; benchmark generated from python API
(set-info :status unknown)
(declare-fun lorder_0 () Int)
(declare-fun lorder_1 () Int)
(declare-fun lorder_2 () Int)
(assert
 (>= lorder_0 1))
(assert
 (<= lorder_0 3))
(assert
 (>= lorder_1 1))
(assert
 (<= lorder_1 3))
(assert
 (>= lorder_2 1))
(assert
 (<= lorder_2 3))
(assert
 (and (distinct lorder_0 lorder_1 lorder_2) true))
(assert
 (or (= lorder_0 lorder_1) (= lorder_0 lorder_2) (= lorder_1 lorder_2)))
(check-sat)
